 vasp.5.3.3 18Dez12 (build Jun 27 2014 16:47:47) complex

 executed on             LinuxIFC date 2017.03.23  18:57:41

 INCAR:
 POTCAR:   PAW_PBE Ag 06Sep2000

 POTCAR:   PAW_PBE Ag 06Sep2000
   VRHFIN =Ag : s1 d10

   TITEL  = PAW_PBE Ag 06Sep2000
   POMASS =  107.868; ZVAL   =   11.000    mass and valenz
   ENMAX  =  249.846; ENMIN  =  187.385 eV
   QCUT   =   -4.285; QGAM   =    8.570    optimization parameters

   Description
     l     E      TYP  RCUT    TYP  RCUT
     2   .000     23  2.400
     2   .000     23  2.400
     0   .000     23  2.400
     0   .000     23  2.400
     1  -.200     23  2.400
     1  1.500     23  2.400
     3   .000      7   .000

 PAW_PBE Ag 06Sep2000                   :

 POSCAR: Ag bulk PBEsol
  positions in direct lattice
 exchange correlation table for  LEXCH =        8
   RHO(1)=    0.500       N(1)  =     2000
   RHO(2)=  100.500       N(2)  =     4000

 ion  position               nearest neighbor table
   1  0.000  0.000  0.000-   2 2.94   3 2.94   4 2.94   3 2.94   4 2.94   2 2.94   4 2.94   4 2.94
                             2 2.94   3 2.94   3 2.94   2 2.94
   2  0.500  0.500  0.000-   1 2.94   3 2.94   4 2.94   3 2.94   4 2.94   1 2.94   3 2.94   3 2.94
                             1 2.94   4 2.94   4 2.94   1 2.94
   3  0.500  0.000  0.500-   1 2.94   2 2.94   4 2.94   1 2.94   2 2.94   2 2.94   4 2.94   2 2.94
                             1 2.94   4 2.94   1 2.94   4 2.94
   4  0.000  0.500  0.500-   1 2.94   2 2.94   3 2.94   1 2.94   2 2.94   1 2.94   3 2.94   1 2.94
                             2 2.94   3 2.94   2 2.94   3 2.94

  LATTYP: Found a simple cubic cell.
 ALAT       =     4.1550000000

  Lattice vectors:

 A1 = (   4.1550000000,   0.0000000000,   0.0000000000)
 A2 = (   0.0000000000,   4.1550000000,   0.0000000000)
 A3 = (   0.0000000000,   0.0000000000,   4.1550000000)

Analysis of symmetry for initial positions (statically):
 Subroutine PRICEL returns following result:

  LATTYP: Found a face centered cubic cell.
 ALAT       =     4.1550000000

[...]

   4 primitive cells build up your supercell.

 Routine SETGRP: Setting up the symmetry group for a
 simple cubic supercell.

 Subroutine GETGRP returns: Found 48 space group operations
 (whereof 48 operations were pure point group operations)
 out of a pool of 48 trial point group operations.

The static configuration has the point symmetry O_h .

Analysis of symmetry for dynamics (positions and initial velocities):
 Subroutine PRICEL returns following result:

  LATTYP: Found a face centered cubic cell.
 ALAT       =     4.1550000000

  Lattice vectors:

 A1 = (   2.0775000000,   2.0775000000,   0.0000000000)
 A2 = (   2.0775000000,   0.0000000000,  -2.0775000000)
 A3 = (   0.0000000000,   2.0775000000,  -2.0775000000)

   4 primitive cells build up your supercell.

 Routine SETGRP: Setting up the symmetry group for a
 simple cubic supercell.

 Subroutine GETGRP returns: Found 48 space group operations
 (whereof 48 operations were pure point group operations)
 out of a pool of 48 trial point group operations.

The dynamic configuration has the point symmetry O_h .

 irot  :   1
 isymop:   1   0   0
           0   1   0
           0   0   1

 gtrans:     0.0000000     0.0000000    -0.0000000

 ptrans:     0.0000000     0.0000000     0.0000000
 rotmap:
 (   1->   1)  (   2->   2)  (   3->   3)  (   4->   4)

[...]

 irot  :  48
 isymop:   0   0   1
           0   1   0
           1   0   0

 gtrans:     0.0000000     0.0000000    -0.0000000

[...]

 ptrans:     0.0000000     0.5000000     0.5000000
 rotmap:
 (   1->   4)  (   2->   1)  (   3->   2)  (   4->   3)

 KPOINTS: Automatic mesh

Automatic generation of k-mesh.
Space group operators:
 irot       det(A)        alpha          n_x          n_y          n_z        tau_x        tau_y        tau_z
    1     1.000000     0.000001     1.000000     0.000000     0.000000     0.000000     0.000000    -0.000000
    2    -1.000000     0.000001     1.000000     0.000000     0.000000     0.000000     0.000000    -0.000000
    3     1.000000   120.000000    -0.577350    -0.577350    -0.577350     0.000000     0.000000    -0.000000
    4    -1.000000   120.000000    -0.577350    -0.577350    -0.577350     0.000000     0.000000    -0.000000
    5     1.000000   120.000000     0.577350     0.577350     0.577350     0.000000     0.000000    -0.000000
    6    -1.000000   120.000000     0.577350     0.577350     0.577350     0.000000     0.000000    -0.000000
    7     1.000000    90.000000     0.000000     0.000000    -1.000000     0.000000     0.000000    -0.000000
    8    -1.000000    90.000000     0.000000     0.000000    -1.000000     0.000000     0.000000    -0.000000
    9     1.000000   180.000000     0.000000     0.707107     0.707107     0.000000     0.000000    -0.000000
   10    -1.000000   180.000000     0.000000     0.707107     0.707107     0.000000     0.000000    -0.000000
   11     1.000000    90.000000     0.000000     1.000000     0.000000     0.000000     0.000000    -0.000000
   12    -1.000000    90.000000     0.000000     1.000000     0.000000     0.000000     0.000000    -0.000000
   13     1.000000   180.000000     0.000000     0.000000     1.000000     0.000000     0.000000    -0.000000
   14    -1.000000   180.000000     0.000000     0.000000     1.000000     0.000000     0.000000    -0.000000
   15     1.000000   120.000000    -0.577350     0.577350     0.577350     0.000000     0.000000    -0.000000
   16    -1.000000   120.000000    -0.577350     0.577350     0.577350     0.000000     0.000000    -0.000000
   17     1.000000   120.000000    -0.577350     0.577350    -0.577350     0.000000     0.000000    -0.000000
   18    -1.000000   120.000000    -0.577350     0.577350    -0.577350     0.000000     0.000000    -0.000000
   19     1.000000    90.000000     0.000000     0.000000     1.000000     0.000000     0.000000    -0.000000
   20    -1.000000    90.000000     0.000000     0.000000     1.000000     0.000000     0.000000    -0.000000
   21     1.000000    90.000000    -1.000000     0.000000     0.000000     0.000000     0.000000    -0.000000
   22    -1.000000    90.000000    -1.000000     0.000000     0.000000     0.000000     0.000000    -0.000000
   23     1.000000   180.000000     0.707107     0.000000     0.707107     0.000000     0.000000    -0.000000
   24    -1.000000   180.000000     0.707107     0.000000     0.707107     0.000000     0.000000    -0.000000
   25     1.000000   120.000000     0.577350    -0.577350     0.577350     0.000000     0.000000    -0.000000
   26    -1.000000   120.000000     0.577350    -0.577350     0.577350     0.000000     0.000000    -0.000000
   27     1.000000   120.000000    -0.577350    -0.577350     0.577350     0.000000     0.000000    -0.000000
   28    -1.000000   120.000000    -0.577350    -0.577350     0.577350     0.000000     0.000000    -0.000000
   29     1.000000   180.000000     1.000000     0.000000     0.000000     0.000000     0.000000    -0.000000
   30    -1.000000   180.000000     1.000000     0.000000     0.000000     0.000000     0.000000    -0.000000
   31     1.000000    90.000000     0.000000    -1.000000     0.000000     0.000000     0.000000    -0.000000
   32    -1.000000    90.000000     0.000000    -1.000000     0.000000     0.000000     0.000000    -0.000000
   33     1.000000   180.000000     0.707107     0.707107     0.000000     0.000000     0.000000    -0.000000
   34    -1.000000   180.000000     0.707107     0.707107     0.000000     0.000000     0.000000    -0.000000
   35     1.000000    90.000000     1.000000     0.000000     0.000000     0.000000     0.000000    -0.000000
   36    -1.000000    90.000000     1.000000     0.000000     0.000000     0.000000     0.000000    -0.000000
   37     1.000000   120.000000     0.577350    -0.577350    -0.577350     0.000000     0.000000    -0.000000
   38    -1.000000   120.000000     0.577350    -0.577350    -0.577350     0.000000     0.000000    -0.000000
   39     1.000000   180.000000     0.000000     1.000000     0.000000     0.000000     0.000000    -0.000000
   40    -1.000000   180.000000     0.000000     1.000000     0.000000     0.000000     0.000000    -0.000000
   41     1.000000   120.000000     0.577350     0.577350    -0.577350     0.000000     0.000000    -0.000000
   42    -1.000000   120.000000     0.577350     0.577350    -0.577350     0.000000     0.000000    -0.000000
   43     1.000000   180.000000     0.000000    -0.707107     0.707107     0.000000     0.000000    -0.000000
   44    -1.000000   180.000000     0.000000    -0.707107     0.707107     0.000000     0.000000    -0.000000
   45     1.000000   180.000000     0.707107    -0.707107     0.000000     0.000000     0.000000    -0.000000
   46    -1.000000   180.000000     0.707107    -0.707107     0.000000     0.000000     0.000000    -0.000000
   47     1.000000   180.000000     0.707107     0.000000    -0.707107     0.000000     0.000000    -0.000000
   48    -1.000000   180.000000     0.707107     0.000000    -0.707107     0.000000     0.000000    -0.000000

 Subroutine IBZKPT returns following result:

 Found    220 irreducible k-points:

 Following reciprocal coordinates:
            Coordinates               Weight
  0.000000  0.000000  0.000000      1.000000
  0.055556  0.000000  0.000000      6.000000
  0.111111  0.000000  0.000000      6.000000
  0.166667  0.000000  0.000000      6.000000
  0.222222  0.000000  0.000000      6.000000
  0.277778  0.000000  0.000000      6.000000
  0.333333  0.000000  0.000000      6.000000
  0.388889  0.000000  0.000000      6.000000
  0.444444  0.000000  0.000000      6.000000
  0.500000  0.000000  0.000000      3.000000
  0.055556  0.055556  0.000000     12.000000
  0.111111  0.055556  0.000000     24.000000
  0.166667  0.055556  0.000000     24.000000
  0.222222  0.055556  0.000000     24.000000
  0.277778  0.055556  0.000000     24.000000
  0.333333  0.055556  0.000000     24.000000
  0.388889  0.055556  0.000000     24.000000
  0.444444  0.055556  0.000000     24.000000
  0.500000  0.055556  0.000000     12.000000
  0.111111  0.111111  0.000000     12.000000
  0.166667  0.111111  0.000000     24.000000
  0.222222  0.111111  0.000000     24.000000
  0.277778  0.111111  0.000000     24.000000
  0.333333  0.111111  0.000000     24.000000
  0.388889  0.111111  0.000000     24.000000
  0.444444  0.111111  0.000000     24.000000
  0.500000  0.111111  0.000000     12.000000
  0.166667  0.166667  0.000000     12.000000
  0.222222  0.166667  0.000000     24.000000
  0.277778  0.166667  0.000000     24.000000
  0.333333  0.166667  0.000000     24.000000
  0.388889  0.166667  0.000000     24.000000
  0.444444  0.166667  0.000000     24.000000
  0.500000  0.166667  0.000000     12.000000
  0.222222  0.222222  0.000000     12.000000
  0.277778  0.222222  0.000000     24.000000
  0.333333  0.222222  0.000000     24.000000
  0.388889  0.222222  0.000000     24.000000
  0.444444  0.222222  0.000000     24.000000
  0.500000  0.222222  0.000000     12.000000
  0.277778  0.277778  0.000000     12.000000
  0.333333  0.277778  0.000000     24.000000
[...]
 k-point 31 :   0.3333 0.1667 0.0000  plane waves:    1306
 k-point 32 :   0.3889 0.1667 0.0000  plane waves:    1302
 k-point 33 :   0.4444 0.1667 0.0000  plane waves:    1304
 k-point 34 :   0.5000 0.1667 0.0000  plane waves:    1292
 k-point 35 :   0.2222 0.2222 0.0000  plane waves:    1300
 k-point 36 :   0.2778 0.2222 0.0000  plane waves:    1300
 k-point 37 :   0.3333 0.2222 0.0000  plane waves:    1301
 k-point 38 :   0.3889 0.2222 0.0000  plane waves:    1309
 k-point 39 :   0.4444 0.2222 0.0000  plane waves:    1304
 k-point 40 :   0.5000 0.2222 0.0000  plane waves:    1298
 k-point 41 :   0.2778 0.2778 0.0000  plane waves:    1304
 k-point 42 :   0.3333 0.2778 0.0000  plane waves:    1300
 k-point 43 :   0.3889 0.2778 0.0000  plane waves:    1306
 k-point 44 :   0.4444 0.2778 0.0000  plane waves:    1304
 k-point 45 :   0.5000 0.2778 0.0000  plane waves:    1300
 k-point 46 :   0.3333 0.3333 0.0000  plane waves:    1312
 k-point 47 :   0.3889 0.3333 0.0000  plane waves:    1300
 k-point 48 :   0.4444 0.3333 0.0000  plane waves:    1306
 k-point 49 :   0.5000 0.3333 0.0000  plane waves:    1298
 k-point 50 :   0.3889 0.3889 0.0000  plane waves:    1300
 k-point 51 :   0.4444 0.3889 0.0000  plane waves:    1307
 k-point 52 :   0.5000 0.3889 0.0000  plane waves:    1306
 k-point 53 :   0.4444 0.4444 0.0000  plane waves:    1304
 k-point 54 :   0.5000 0.4444 0.0000  plane waves:    1308
 k-point 55 :   0.5000 0.5000 0.0000  plane waves:    1308
 k-point 56 :   0.0556 0.0556 0.0556  plane waves:    1321
 k-point 57 :   0.1111 0.0556 0.0556  plane waves:    1315
 k-point 58 :   0.1667 0.0556 0.0556  plane waves:    1305
 k-point 59 :   0.2222 0.0556 0.0556  plane waves:    1301
 k-point 60 :   0.2778 0.0556 0.0556  plane waves:    1304
[...]
 k-point 85 :   0.5000 0.2222 0.0556  plane waves:    1298
 k-point 86 :   0.2778 0.2778 0.0556  plane waves:    1304
 k-point 87 :   0.3333 0.2778 0.0556  plane waves:    1301
 k-point 88 :   0.3889 0.2778 0.0556  plane waves:    1300
 k-point 89 :   0.4444 0.2778 0.0556  plane waves:    1304
 k-point 90 :   0.5000 0.2778 0.0556  plane waves:    1300
 k-point 91 :   0.3333 0.3333 0.0556  plane waves:    1300
 k-point 92 :   0.3889 0.3333 0.0556  plane waves:    1302
 k-point 93 :   0.4444 0.3333 0.0556  plane waves:    1305
 k-point 94 :   0.5000 0.3333 0.0556  plane waves:    1296
 k-point 95 :   0.3889 0.3889 0.0556  plane waves:    1306
 k-point 96 :   0.4444 0.3889 0.0556  plane waves:    1308
 k-point 97 :   0.5000 0.3889 0.0556  plane waves:    1300
 k-point 98 :   0.4444 0.4444 0.0556  plane waves:    1302
 k-point 99 :   0.5000 0.4444 0.0556  plane waves:    1302
 k-point ** :   0.5000 0.5000 0.0556  plane waves:    1300
 k-point ** :   0.1111 0.1111 0.1111  plane waves:    1313
 k-point ** :   0.1667 0.1111 0.1111  plane waves:    1302
 k-point ** :   0.2222 0.1111 0.1111  plane waves:    1300
 k-point ** :   0.2778 0.1111 0.1111  plane waves:    1298
 k-point ** :   0.3333 0.1111 0.1111  plane waves:    1306
 k-point ** :   0.3889 0.1111 0.1111  plane waves:    1301
 k-point ** :   0.4444 0.1111 0.1111  plane waves:    1301
 k-point ** :   0.5000 0.1111 0.1111  plane waves:    1300
 k-point ** :   0.1667 0.1667 0.1111  plane waves:    1302
 k-point ** :   0.2222 0.1667 0.1111  plane waves:    1307
 k-point ** :   0.2778 0.1667 0.1111  plane waves:    1306
 k-point ** :   0.3333 0.1667 0.1111  plane waves:    1303
 k-point ** :   0.3889 0.1667 0.1111  plane waves:    1302
 k-point ** :   0.4444 0.1667 0.1111  plane waves:    1303
 k-point ** :   0.5000 0.1667 0.1111  plane waves:    1300
 k-point ** :   0.2222 0.2222 0.1111  plane waves:    1308
 k-point ** :   0.2778 0.2222 0.1111  plane waves:    1305
 k-point ** :   0.3333 0.2222 0.1111  plane waves:    1304
 k-point ** :   0.3889 0.2222 0.1111  plane waves:    1304
 k-point ** :   0.4444 0.2222 0.1111  plane waves:    1296
 k-point ** :   0.5000 0.2222 0.1111  plane waves:    1300
 k-point ** :   0.2778 0.2778 0.1111  plane waves:    1301
 k-point ** :   0.3333 0.2778 0.1111  plane waves:    1306
 k-point ** :   0.3889 0.2778 0.1111  plane waves:    1303
 k-point ** :   0.4444 0.2778 0.1111  plane waves:    1299
 k-point ** :   0.5000 0.2778 0.1111  plane waves:    1302
 k-point ** :   0.3333 0.3333 0.1111  plane waves:    1308
 k-point ** :   0.3889 0.3333 0.1111  plane waves:    1301
 k-point ** :   0.4444 0.3333 0.1111  plane waves:    1299
 k-point ** :   0.5000 0.3333 0.1111  plane waves:    1302
 k-point ** :   0.3889 0.3889 0.1111  plane waves:    1304
 k-point ** :   0.4444 0.3889 0.1111  plane waves:    1300
 k-point ** :   0.5000 0.3889 0.1111  plane waves:    1300
 k-point ** :   0.4444 0.4444 0.1111  plane waves:    1299
 k-point ** :   0.5000 0.4444 0.1111  plane waves:    1302
 k-point ** :   0.5000 0.5000 0.1111  plane waves:    1300
 k-point ** :   0.1667 0.1667 0.1667  plane waves:    1298
 k-point ** :   0.2222 0.1667 0.1667  plane waves:    1308
 k-point ** :   0.2778 0.1667 0.1667  plane waves:    1310
 k-point ** :   0.3333 0.1667 0.1667  plane waves:    1307
 k-point ** :   0.3889 0.1667 0.1667  plane waves:    1292
 k-point ** :   0.4444 0.1667 0.1667  plane waves:    1295
 k-point ** :   0.5000 0.1667 0.1667  plane waves:    1300
 k-point ** :   0.2222 0.2222 0.1667  plane waves:    1304
 k-point ** :   0.2778 0.2222 0.1667  plane waves:    1299
 k-point ** :   0.3333 0.2222 0.1667  plane waves:    1298
 k-point ** :   0.3889 0.2222 0.1667  plane waves:    1301
 k-point ** :   0.4444 0.2222 0.1667  plane waves:    1298
 k-point ** :   0.5000 0.2222 0.1667  plane waves:    1300
 k-point ** :   0.2778 0.2778 0.1667  plane waves:    1300
 k-point ** :   0.3333 0.2778 0.1667  plane waves:    1303
 k-point ** :   0.3889 0.2778 0.1667  plane waves:    1301
 k-point ** :   0.4444 0.2778 0.1667  plane waves:    1298
 k-point ** :   0.5000 0.2778 0.1667  plane waves:    1312
 k-point ** :   0.3333 0.3333 0.1667  plane waves:    1301
 k-point ** :   0.3889 0.3333 0.1667  plane waves:    1301
 k-point ** :   0.4444 0.3333 0.1667  plane waves:    1304
 k-point ** :   0.5000 0.3333 0.1667  plane waves:    1306
 k-point ** :   0.3889 0.3889 0.1667  plane waves:    1306
[...]
 k-point ** :   0.4444 0.3889 0.3333  plane waves:    1311
 k-point ** :   0.5000 0.3889 0.3333  plane waves:    1310
 k-point ** :   0.4444 0.4444 0.3333  plane waves:    1310
 k-point ** :   0.5000 0.4444 0.3333  plane waves:    1316
 k-point ** :   0.5000 0.5000 0.3333  plane waves:    1304
 k-point ** :   0.3889 0.3889 0.3889  plane waves:    1310
 k-point ** :   0.4444 0.3889 0.3889  plane waves:    1312
 k-point ** :   0.5000 0.3889 0.3889  plane waves:    1316
 k-point ** :   0.4444 0.4444 0.3889  plane waves:    1320
 k-point ** :   0.5000 0.4444 0.3889  plane waves:    1320
 k-point ** :   0.5000 0.5000 0.3889  plane waves:    1324
 k-point ** :   0.4444 0.4444 0.4444  plane waves:    1325
 k-point ** :   0.5000 0.4444 0.4444  plane waves:    1334
 k-point ** :   0.5000 0.5000 0.4444  plane waves:    1328
 k-point ** :   0.5000 0.5000 0.5000  plane waves:    1328

 maximum and minimum number of plane-waves per node :       673      630

 maximum number of plane-waves:      1334
 maximum index in each direction:
   IXMAX=    6   IYMAX=    6   IZMAX=    6
   IXMIN=   -7   IYMIN=   -7   IZMIN=   -7

 NGX is ok and might be reduce to  28
 NGY is ok and might be reduce to  28
 NGZ is ok and might be reduce to  28

 parallel 3D FFT for wavefunctions:
    minimum data exchange during FFTs selected (reduces bandwidth)
 parallel 3D FFT for charge:
    minimum data exchange during FFTs selected (reduces bandwidth)

 Broyden mixing: mesh for mixing (old mesh)
   NGX = 13   NGY = 13   NGZ = 13
  (NGX  = 56   NGY  = 56   NGZ  = 56)
  gives a total of   2197 points

 initial charge density was supplied:
 charge density of overlapping atoms calculated
 number of electron      44.0000000 magnetization
 keeping initial charge density in first step

 Maximum index for augmentation-charges          794 (set IRDMAX)

 First call to EWALD:  gamma=   0.427
 Maximum number of real-space cells 3x 3x 3
 Maximum number of reciprocal cells 3x 3x 3

 FEWALD executed in parallel

----------------------------------------- Iteration    1(   1)  ---------------------------------------

 eigenvalue-minimisations  : 13410
 total energy-change (2. order) : 0.3287715E+03  (-0.1933864E+04)
 number of electron      44.0000000 magnetization
 augmentation part       44.0000000 magnetization

 Free energy of the ion-electron system (eV)
  alpha Z        PSCENC =       396.09133752
  Ewald energy   TEWEN  =     -3845.26868333
  -1/2 Hartree   DENC   =      -841.46488134
  -exchange  EXHF       =         0.00000000
  -V(xc)+E(xc)   XCENC  =       -43.33291960
  PAW double counting   =      3482.67677651    -3297.07979946
  entropy T*S    EENTRO =        -0.00050219
  eigenvalues    EBANDS =       327.53289535
  atomic energy  EATOM  =      4149.61731350
  free energy    TOTEN  =       328.77153698 eV

  energy without entropy =      328.77203916  energy(sigma->0) =      328.77170437

[...]

 eigenvalue-minimisations  : 13270
 total energy-change (2. order) :-0.3331600E+03  (-0.3145204E+03)
 number of electron      44.0000000 magnetization
 augmentation part       44.0000000 magnetization

[...]

 Broyden mixing:
  rms(total) = 0.56139E+00    rms(broyden)= 0.56139E+00
  rms(prec ) = 0.13923E+01
  weight for this iteration     100.00

[...]

 eigenvalues of (default mixing * dielectric matrix)
  average eigenvalue GAMMA=   1.0615
  1.0615

[...]

 eigenvalue-minimisations  : 11505
 total energy-change (2. order) : 0.3346525E-04  (-0.4803086E-06)
 number of electron      44.0000070 magnetization
 augmentation part       21.1110139 magnetization

 Broyden mixing:
  rms(total) = 0.18505E-03    rms(broyden)= 0.18447E-03
  rms(prec ) = 0.39614E-03
  weight for this iteration     100.00

 eigenvalues of (default mixing * dielectric matrix)
  average eigenvalue GAMMA=   1.8070
  1.0198  1.0198  2.8338  2.3019  1.8596

[...]

----------------------------------------- Iteration    1(  11)  ---------------------------------------

 eigenvalue-minimisations  :  7927
 total energy-change (2. order) :-0.6233240E-06  (-0.4482414E-07)
 number of electron      44.0000070 magnetization
 augmentation part       21.1110139 magnetization

 Free energy of the ion-electron system (eV)
  alpha Z        PSCENC =       396.09133752
  Ewald energy   TEWEN  =     -3845.26868333
  -1/2 Hartree   DENC   =      -794.29032660
  -exchange  EXHF       =         0.00000000
  -V(xc)+E(xc)   XCENC  =       -45.06857480
  PAW double counting   =      3468.61968136    -3291.60626628
  entropy T*S    EENTRO =        -0.00114737
  eigenvalues    EBANDS =       -49.40021844
  atomic energy  EATOM  =      4149.61731350
  free energy    TOTEN  =       -11.30688443 eV

  energy without entropy =      -11.30573706  energy(sigma->0) =      -11.30650197

 average (electrostatic) potential at core
  the test charge radii are     1.1249
  (the norm of the test charge is              1.0000)
       1 -41.5915       2 -41.5915       3 -41.5915       4 -41.5915

 E-fermi :   3.1252     XC(G=0): -11.9108     alpha+bet : -8.1196

 k-point   1 :       0.0000    0.0000    0.0000
  band No.  band energies     occupation
      1      -4.3222      2.00000
      2      -3.0648      2.00000
      3      -3.0648      2.00000
      4      -3.0648      2.00000
      5      -2.9449      2.00000
      6      -2.9449      2.00000
      7      -2.9449      2.00000
      8      -1.5724      2.00000
      9      -1.5724      2.00000
     10      -1.5724      2.00000
     11      -0.6257      2.00000
     12      -0.6257      2.00000
     13       0.0729      2.00000
     14       0.0729      2.00000
     15       0.0729      2.00000
     16       0.2924      2.00000
     17       0.2924      2.00000
     18       0.2924      2.00000
     19       0.2924      2.00000
     20       0.2924      2.00000
     21       0.2924      2.00000
     22       4.7453     -0.00000
     23       4.7453     -0.00000
     24       4.7453     -0.00000
     25       9.4501      0.00000
     26       9.4501      0.00000
     27       9.4501      0.00000
     28      13.6610      0.00000
     29      13.6610      0.00000
     30      13.6610      0.00000

[...]

 k-point 220 :       0.5000    0.5000    0.5000
  band No.  band energies     occupation
      1      -3.0287      2.00000
      2      -3.0287      2.00000
      3      -3.0287      2.00000
      4      -3.0287      2.00000
      5      -1.5904      2.00000
      6      -1.5904      2.00000
      7      -1.5904      2.00000
      8      -1.5904      2.00000
      9      -1.5904      2.00000
     10      -1.5904      2.00000
     11      -1.5904      2.00000
     12      -1.5904      2.00000
     13       0.1027      2.00000
     14       0.1027      2.00000
     15       0.1027      2.00000
     16       0.1027      2.00000
     17       0.1027      2.00000
     18       0.1027      2.00000
     19       0.1027      2.00000
     20       0.1027      2.00000
     21       2.8136      2.00010
     22       2.8136      2.00010
     23       2.8136      2.00010
     24       2.8136      2.00010
     25       6.4229      0.00000
     26       6.4229      0.00000
     27       6.4229      0.00000
     28       6.4229      0.00000
     29      18.8347      0.00000
     30      18.8347      0.00000

 soft charge-density along one line, spin component           1
         0         1         2         3         4         5         6         7         8         9
 total charge-density along one line

------------------------ aborting loop because EDIFF is reached ----------------------------------------

  FORCE on cell =-STRESS in cart. coord.  units (eV):
  Direction    XX          YY          ZZ          XY          YZ          ZX
  Alpha Z   396.09134   396.09134   396.09134
  Ewald   -1281.75679 -1281.75679 -1281.75679     0.00000    -0.00000    -0.00000
  Hartree   264.76355   264.76355   264.76355    -0.00000    -0.00000    -0.00000
  E(xc)    -232.49521  -232.49521  -232.49521     0.00000    -0.00000     0.00000
  Local     405.15533   405.15533   405.15533    -0.00000    -0.00000    -0.00000
  n-local  -257.36367  -265.32298  -267.60723     0.33792     2.39034     0.70251
  augment   167.68451   167.68451   167.68451     0.00000     0.00000     0.00000
  Kinetic   551.69626   542.74119   537.77357    -2.90049     0.54160    -1.27026
  Fock        0.00000     0.00000     0.00000     0.00000     0.00000     0.00000
  Total       0.08178     0.08178     0.08178     0.00000     0.00000    -0.00000
  in kB       1.82658     1.82658     1.82658     0.00000     0.00000    -0.00000

 VOLUME and BASIS-vectors are now :
  energy-cutoff  :      400.00
  volume of cell :       71.73
      direct lattice vectors                 reciprocal lattice vectors
     4.155000000  0.000000000  0.000000000     0.240673887  0.000000000  0.000000000
     0.000000000  4.155000000  0.000000000     0.000000000  0.240673887  0.000000000
     0.000000000  0.000000000  4.155000000     0.000000000  0.000000000  0.240673887

  length of vectors
     4.155000000  4.155000000  4.155000000     0.240673887  0.240673887  0.240673887

 FORCES acting on ions
    electron-ion (+dipol)            ewald-force                    non-local-force                 convergence-correction
   -.143E-13 -.244E-13 -.369E-13   -.146E-13 0.448E-14 -.386E-14   0.000E+00 -.646E-26 0.103E-24   -.109E-13 0.108E-13 0.476E-13
   0.290E-12 0.231E-11 0.152E-11   0.298E-14 0.116E-13 -.398E-14   0.000E+00 0.000E+00 0.103E-24   0.107E-14 -.996E-14 0.442E-13
   0.289E-12 -.215E-13 0.489E-11   0.715E-14 -.108E-13 0.363E-14   0.000E+00 0.000E+00 0.103E-24   -.150E-14 0.390E-14 -.100E-12
   -.171E-13 0.277E-12 0.279E-12   0.771E-14 -.375E-14 0.352E-14   0.000E+00 0.000E+00 0.000E+00   -.484E-14 -.988E-14 -.833E-13
   0.548E-12 0.254E-11 0.665E-11   0.320E-14 0.146E-14 -.690E-15   0.000E+00 -.646E-26 0.310E-24   -.162E-13 -.510E-14 -.915E-13

 POSITION                                       TOTAL-FORCE (eV/Angst)
      0.00000      0.00000      0.00000         0.000000     -0.000000      0.000000
      2.07750      2.07750      0.00000         0.000000      0.000000      0.000000
      2.07750      0.00000      2.07750        -0.000000      0.000000      0.000000
      0.00000      2.07750      2.07750        -0.000000     -0.000000     -0.000000
    total drift:                                0.000000      0.000000      0.000000

  FREE ENERGIE OF THE ION-ELECTRON SYSTEM (eV)
  free  energy   TOTEN  =       -11.30688443 eV

  energy  without entropy=      -11.30573706  energy(sigma->0) =      -11.30650197